ITEM: TIMESTEP
0
ITEM: NUMBER OF ATOMS
8
ITEM: BOX BOUNDS pp pp pp
0.0000000000000000e+00 2.1016749801592973e+00
0.0000000000000000e+00 2.1016749801592973e+00
0.0000000000000000e+00 2.1016749801592973e+00
ITEM: ATOMS id type xs ys zs vx vy vz
8 1 0.0191185 0.0503149 0.424173 1.48182 -2.19497 -1.24236
2 1 0.519118 0.258108 0.485259 -0.174625 0.457695 0.693865
1 1 0.205878 0.125622 0.935228 -0.597454 1.3679 -0.998949
3 1 0.690288 0.335324 0.983709 -1.3954 0.662129 0.124764
4 1 0.556101 0.767731 0.301128 1.27585 -0.389213 -0.603687
5 1 0.0765609 0.548771 0.258856 -0.255976 -0.587153 1.47928
6 1 0.746729 0.83934 0.815425 0.453517 0.1196 0.421513
7 1 0.251332 0.632827 0.756114 -0.78773 0.564013 0.12557
ITEM: TIMESTEP
10
ITEM: NUMBER OF ATOMS
8
ITEM: BOX BOUNDS pp pp pp
0.0000000000000000e+00 2.1016749801592973e+00
0.0000000000000000e+00 2.1016749801592973e+00
0.0000000000000000e+00 2.1016749801592973e+00
ITEM: ATOMS id type xs ys zs vx vy vz
8 1 0.0500802 -0.000812847 0.402408 1.21858 -1.87471 -0.813856
2 1 0.514335 0.267732 0.503099 -0.0732 0.346971 0.937611
1 1 0.183302 0.157326 0.914264 -1.02839 1.43386 -1.08496
3 1 0.657145 0.337916 0.989321 -1.45397 -0.289424 0.15153
4 1 0.586547 0.7512 0.294402 1.03301 -0.743719 0.0494713
5 1 0.0755411 0.533058 0.289934 0.0961302 -0.847445 1.20619
6 1 0.754318 0.837444 0.815775 0.321904 0.0776747 -0.394918
7 1 0.225724 0.646257 0.760656 -1.40752 0.645962 0.136571
ITEM: TIMESTEP
20
ITEM: NUMBER OF ATOMS
8
ITEM: BOX BOUNDS pp pp pp
0.0000000000000000e+00 2.1016749801592973e+00
0.0000000000000000e+00 2.1016749801592973e+00
0.0000000000000000e+00 2.1016749801592973e+00
ITEM: ATOMS id type xs ys zs vx vy vz
1 1 0.158098 0.186021 0.894614 -1.15287 0.893084 -0.54154
3 1 0.626141 0.335913 0.995673 -0.91241 -0.0414507 0.347519
2 1 0.514266 0.276425 0.515382 -0.0581091 0.112733 0.141586
4 1 0.59718 0.731672 0.299903 0.180746 -0.679239 0.327095
5 1 0.0840408 0.494565 0.306882 0.815266 -2.26181 0.279676
8 1 0.0778411 0.973526 0.386677 0.763623 -0.307375 -0.78613
6 1 0.750235 0.840773 0.808424 -0.612073 0.0948027 -0.179506
7 1 0.200402 0.662831 0.764811 -0.620936 0.469241 0.204894
